;; sequence(s): A22793
;; terms: 1 4 10 19 31 46 63 83 106 132 161 193 227 264 304 347 393 442 493 547
;; small program: loop(loop(((y * y) div ((2 + x) + y)) + y, y + y, 0) + x, x, 1) + x
;; fast program: loop(loop(((x + x) - (((x div (1 + (2 + 2))) + x) div (1 + (2 + (2 + 2))))) + x, 1, y) + x, x, 1)
(set-logic UFNIA)
(define-fun divf ((a Int) (b Int)) Int (ite (< 0 b) (div a b) (div (- a) (- b))))
(declare-fun f1 (Int Int) Int)
(declare-fun g1 (Int Int) Int)
(declare-fun h1 () Int)
(declare-fun u1 (Int Int) Int)
(declare-fun v1 (Int Int) Int)
(declare-fun f0 (Int Int) Int)
(declare-fun g0 (Int) Int)
(declare-fun h0 () Int)
(declare-fun u0 (Int Int) Int)
(declare-fun v0 (Int) Int)
(declare-fun small (Int) Int)
(declare-fun f3 (Int) Int)
(declare-fun g3 () Int)
(declare-fun h3 (Int Int) Int)
(declare-fun u3 (Int Int) Int)
(declare-fun v3 (Int Int) Int)
(declare-fun f2 (Int Int) Int)
(declare-fun g2 (Int) Int)
(declare-fun h2 () Int)
(declare-fun u2 (Int Int) Int)
(declare-fun v2 (Int) Int)
(declare-fun fast (Int) Int)
(assert (forall ((x Int) (y Int)) (= (f1 x y) (+ (divf (* y y) (+ (+ 2 x) y)) y))))
(assert (forall ((x Int) (y Int)) (= (g1 x y) (+ y y))))
(assert (= h1 0))
(assert (forall ((x Int) (y Int)) (= (u1 x y) (ite (<= x 0) y (f1 (u1 (- x 1) y) x)))))
(assert (forall ((x Int) (y Int)) (= (v1 x y) (u1 (g1 x y) h1))))
(assert (forall ((x Int) (y Int)) (= (f0 x y) (+ (v1 x y) x))))
(assert (forall ((x Int)) (= (g0 x) x)))
(assert (= h0 1))
(assert (forall ((x Int) (y Int)) (= (u0 x y) (ite (<= x 0) y (f0 (u0 (- x 1) y) x)))))
(assert (forall ((x Int)) (= (v0 x) (u0 (g0 x) h0))))
(assert (forall ((x Int)) (= (small x) (+ (v0 x) x))))
(assert (forall ((x Int)) (= (f3 x) (+ (- (+ x x) (divf (+ (divf x (+ 1 (+ 2 2))) x) (+ 1 (+ 2 (+ 2 2))))) x))))
(assert (= g3 1))
(assert (forall ((x Int) (y Int)) (= (h3 x y) y)))
(assert (forall ((x Int) (y Int)) (= (u3 x y) (ite (<= x 0) y (f3 (u3 (- x 1) y))))))
(assert (forall ((x Int) (y Int)) (= (v3 x y) (u3 g3 (h3 x y)))))
(assert (forall ((x Int) (y Int)) (= (f2 x y) (+ (v3 x y) x))))
(assert (forall ((x Int)) (= (g2 x) x)))
(assert (= h2 1))
(assert (forall ((x Int) (y Int)) (= (u2 x y) (ite (<= x 0) y (f2 (u2 (- x 1) y) x)))))
(assert (forall ((x Int)) (= (v2 x) (u2 (g2 x) h2))))
(assert (forall ((x Int)) (= (fast x) (v2 x))))
(assert (exists ((c Int)) (and (>= c 0) (not (= (small c) (fast c))))))
(check-sat)
